p cnf 8 14
-7 5 0
-5 7 0
-6 -5 0
5 6 0
-4 3 0
-3 4 0
-8 -3 0
3 8 0
-2 -1 0
1 2 0
2 4 6 0
2 4 7 0
2 8 7 0
2 8 6 0
w 5 0.125000
w 3 0.125000
w 1 0.125000
w 7 -1.000000
w 6 -1.000000
w 4 -1.000000
w 8 -1.000000
w 2 -1.000000
